0
1 4 -1
1
0 2 3 -1
2
1 -1
3
1 9 -1
4
0 5 6 -1
5
4 -1
6
4 7 8 -1
7
6 10 -1
8
6 -1
9
3 -1
10
7 -1
-2
0 511 200 1 589 256 2 586 296 3 713 201 4 457 171 5 455 119 6 307 266 7 178 199 8 309 305 9 714 108 10 165 134 -2
